9044.0
[0, 0, 0, 0, 1, 0, 1, 1, 1, 2, 3, 2, 2, 3, 3, 4, 4, 4, 5, 5, 5, 5, 5, 5, 6, 6, 6, 6, 6, 7, 7, 8, 8, 8, 8, 8, 8, 8, 9, 9, 9, 9, 10, 10, 11, 10, 11, 10, 12, 13, 12, 13, 13, 12, 13, 14, 15, 12, 14, 12, 0, 15, 14, 14, 15, 16, 16, 17, 17, 17, 17, 17, 17, 18, 18, 19, 18, 19, 19, 19]